qe/outputs/qe/qe_queries_cbrdelay/T=5,eliminate=[I_0,I_1,I_2,I_3,I_4,B].smt2
; benchmark generated from python API
(set-info :status unknown)
(declare-fun S_3 () Real)
(declare-fun C () Real)
(declare-fun L_1 () Real)
(declare-fun A_1 () Real)
(declare-fun S_4 () Real)
(declare-fun L_4 () Real)
(declare-fun A_4 () Real)
(declare-fun L_3 () Real)
(declare-fun A_3 () Real)
(declare-fun L_2 () Real)
(declare-fun S_2 () Real)
(declare-fun A_2 () Real)
(declare-fun S_1 () Real)
(declare-fun L_0 () Real)
(declare-fun S_0 () Real)
(declare-fun A_0 () Real)
(assert
 (let (($x34 (>= L_0 0.0)))
 (let (($x682 (>= C 5.0)))
 (let (($x17477 (<= 0.0 (+ A_4 (* (- 1.0) A_2) (* (- 1.0) L_4) (* (- 2.0) C) L_2))))
 (let ((?x398 (* (- 1.0) L_4)))
 (let ((?x726 (+ L_3 ?x398)))
 (let (($x15467 (<= 0.0 ?x726)))
 (let ((?x424 (* (- 1.0) L_2)))
 (let ((?x382 (* (- 1.0) S_1)))
 (let ((?x391 (* (- 1.0) C)))
 (let ((?x411 (* (- 1.0) L_3)))
 (let ((?x329 (* (- 1.0) A_4)))
 (let (($x38771 (or (<= (+ ?x329 A_3 A_2 ?x411 ?x391 ?x382 ?x424 L_4) 0.0) $x15467 $x17477)))
 (let (($x10842 (<= (+ ?x329 A_3 A_2 (* (- 1.0) A_0) ?x411 ?x391 L_0 ?x424 L_4) 0.0)))
 (let (($x16713 (<= (+ ?x329 A_3 ?x411 C L_4) (- 5.0))))
 (let ((?x1082 (* 2.0 C)))
 (let ((?x1463 (+ ?x329 A_2 ?x424 ?x1082 L_4)))
 (let (($x16597 (<= ?x1463 (- 5.0))))
 (let (($x37918 (or $x15467 $x16597 $x16713 (<= (+ ?x329 A_1 (* (- 1.0) L_1) (* 3.0 C) L_4) (- 5.0)) (<= (+ ?x329 (* 4.0 C) S_0 L_4) (- 5.0)))))
 (let (($x38393 (or (<= (+ ?x329 A_3 A_2 ?x411 (* (- 1.0) S_2) ?x424 L_4) 0.0) $x15467 $x17477)))
 (let (($x10839 (<= (+ ?x329 A_3 A_2 ?x411 C (* (- 1.0) S_3) ?x424 L_4) 0.0)))
 (let (($x16403 (<= (+ (* (- 1.0) A_3) A_2 ?x424 C L_3) (- 5.0))))
 (let (($x875 (= (+ L_3 ?x424) 0.0)))
 (let (($x21120 (or $x875 $x16403 (<= (+ (* (- 1.0) A_3) A_1 (* (- 1.0) L_1) ?x1082 L_3) (- 5.0)) (<= (+ (* (- 1.0) A_3) (* 3.0 C) S_0 L_3) (- 5.0)))))
 (let (($x1349 (<= (+ A_2 ?x424 C (* (- 1.0) S_4)) 0.0)))
 (let (($x852 (<= (+ A_3 (* (- 1.0) S_4) ?x411) 0.0)))
 (let (($x18532 (or $x852 $x1349 (<= (+ A_1 (* (- 1.0) L_1) ?x1082 (* (- 1.0) S_4)) 0.0) (<= (+ (* 3.0 C) (* (- 1.0) S_4) S_0) 0.0))))
 (let ((?x341 (* (- 1.0) A_1)))
 (let ((?x10874 (+ ?x329 A_3 A_2 ?x341 ?x411 L_1 ?x424 L_4)))
 (let (($x18284 (<= 0.0 ?x10874)))
 (let ((?x459 (+ L_1 ?x424)))
 (let (($x17946 (<= 0.0 ?x459)))
 (let ((?x337 (* (- 1.0) A_2)))
 (let ((?x333 (* (- 1.0) A_3)))
 (let (($x38340 (or (<= (+ A_4 ?x333 ?x337 L_3 C S_0 L_2 ?x398) 0.0) $x17946 $x18284)))
 (let ((?x893 (* (- 1.0) S_0)))
 (let ((?x894 (* (- 2.0) C)))
 (let (($x20222 (or (<= (+ ?x329 A_3 A_2 ?x411 ?x894 ?x893 ?x424 L_4) 0.0) $x15467 $x17477)))
 (let (($x38077 (or (<= (+ A_4 ?x333 ?x337 L_3 ?x391 S_2 L_2 ?x398) 0.0) $x17946)))
 (let (($x858 (<= (+ A_2 (* (- 1.0) S_3) ?x424) 0.0)))
 (let (($x10379 (or $x858 (<= (+ A_1 (* (- 1.0) L_1) C (* (- 1.0) S_3)) 0.0) (<= (+ ?x1082 (* (- 1.0) S_3) S_0) 0.0))))
 (let (($x18021 (or (<= (+ ?x337 A_1 (* (- 1.0) L_1) C L_2) (- 5.0)) $x17946 (<= (+ ?x337 ?x1082 S_0 L_2) (- 5.0)))))
 (let (($x879 (= (+ L_1 (* (- 1.0) L_0)) 0.0)))
 (let (($x38737 (or $x879 (<= (+ A_4 ?x333 ?x341 L_3 ?x894 S_2 L_1 ?x398) 0.0))))
 (let (($x38287 (or (<= (+ A_2 ?x894 ?x424 ?x382) 0.0) (not (<= 0.0 (+ ?x337 ?x894 S_4 L_2))))))
 (let (($x6711 (<= (+ ?x329 A_3 A_2 ?x411 ?x894 ?x893 (* (- 1.0) L_1) L_4) 0.0)))
 (let (($x16866 (<= 0.0 (+ A_4 ?x341 ?x398 (* (- 3.0) C) L_1))))
 (let (($x885 (<= (+ A_3 ?x337 ?x411 L_2 ?x391) 0.0)))
 (let (($x903 (not $x885)))
 (let (($x21274 (or $x903 (<= (+ ?x329 A_3 A_1 ?x411 ?x382 (* (- 1.0) L_1) L_4) 0.0) $x15467 $x16866)))
 (let ((?x437 (* (- 1.0) L_1)))
 (let ((?x869 (* (- 1.0) A_0)))
 (let (($x37772 (or $x903 (<= (+ ?x329 A_3 A_1 ?x869 ?x411 L_0 ?x437 L_4) 0.0) $x15467 $x16866)))
 (let (($x2691 (<= (+ ?x329 A_3 A_1 ?x411 C (* (- 1.0) S_2) ?x437 L_4) 0.0)))
 (let (($x20660 (or $x903 (<= (+ ?x329 A_3 A_1 ?x411 ?x391 ?x893 ?x437 L_4) 0.0) $x15467 $x16866)))
 (let (($x3045 (<= (+ ?x329 A_3 A_1 ?x411 ?x1082 (* (- 1.0) S_3) ?x437 L_4) 0.0)))
 (let (($x1423 (not (<= (+ ?x333 A_2 C ?x437 L_3) 0.0))))
 (let (($x37957 (or $x1423 (<= (+ ?x329 A_2 A_1 ?x869 ?x424 C L_0 ?x437 L_4) 0.0) $x15467 $x16866)))
 (let (($x37607 (or $x879 (<= (+ A_4 ?x337 ?x341 L_2 ?x391 S_0 L_1 ?x398) 0.0))))
 (let (($x38407 (or $x879 (<= (+ A_4 ?x333 ?x341 L_3 ?x391 S_1 L_1 ?x398) 0.0))))
 (let (($x21315 (or $x1423 (<= (+ ?x329 A_2 A_1 ?x424 C ?x382 ?x437 L_4) 0.0) $x15467 $x16866)))
 (let (($x38556 (or $x1423 (<= (+ ?x329 A_2 A_1 ?x424 ?x893 ?x437 L_4) 0.0) $x15467 $x16866)))
 (let (($x24307 (or $x879 (<= (+ A_4 ?x337 ?x341 L_2 ?x894 S_1 L_1 ?x398) 0.0))))
 (let (($x1725 (<= (+ ?x329 A_2 A_1 ?x424 ?x1082 (* (- 1.0) S_2) ?x437 L_4) 0.0)))
 (let (($x1753 (<= (+ A_4 ?x341 (* (- 3.0) C) L_1 ?x398) 0.0)))
 (let (($x1737 (not $x1753)))
 (let (($x1100 (= (+ ?x329 A_1 (* 3.0 C) ?x437 L_4) 0.0)))
 (let (($x864 (<= (+ A_1 (* (- 1.0) S_2) ?x437) 0.0)))
 (let ((?x2199 (+ ?x333 A_1 ?x437 ?x1082 L_3)))
 (let (($x16575 (<= 0.0 ?x2199)))
 (let (($x16577 (not $x16575)))
 (let (($x1099 (= (+ ?x333 A_1 ?x1082 ?x437 L_3) 0.0)))
 (let ((?x506 (+ L_2 ?x411)))
 (let (($x256 (<= 0.0 ?x506)))
 (let (($x38243 (or $x256 (<= (+ ?x333 A_2 A_1 ?x869 ?x424 L_0 ?x437 L_3) 0.0) $x1099 $x16577)))
 (let (($x37586 (or $x256 $x1099 (<= (+ ?x333 A_2 A_1 ?x424 ?x391 ?x893 ?x437 L_3) 0.0) $x16577)))
 (let (($x38447 (or $x256 $x1099 (<= (+ ?x333 A_2 A_1 ?x424 ?x382 ?x437 L_3) 0.0) $x16577)))
 (let (($x38302 (or $x879 (<= (+ A_3 ?x337 ?x341 L_2 ?x391 S_1 L_1 ?x411) 0.0))))
 (let (($x2321 (<= (+ ?x333 A_2 A_1 ?x424 C (* (- 1.0) S_2) ?x437 L_3) 0.0)))
 (let (($x873 (= (+ L_4 ?x411) 0.0)))
 (let (($x37558 (or $x873 (not (<= (+ A_4 ?x333 ?x398 L_3 ?x391) 0.0)) (= (+ ?x329 A_3 C ?x411 L_4) 0.0))))
 (let (($x877 (= (+ L_2 ?x437) 0.0)))
 (let (($x38638 (or $x877 (not (<= (+ A_2 ?x341 ?x424 L_1 ?x391) 0.0)) (= (+ ?x337 A_1 C ?x437 L_2) 0.0))))
 (let (($x96 (>= S_1 S_0)))
 (let (($x99 (>= S_2 S_1)))
 (let (($x102 (>= S_3 S_2)))
 (let (($x105 (>= S_4 S_3)))
 (let (($x107 (>= A_1 A_0)))
 (let (($x108 (>= A_2 A_1)))
 (let (($x109 (>= A_3 A_2)))
 (let (($x110 (>= A_4 A_3)))
 (and $x110 $x109 $x108 $x107 $x105 $x102 $x99 $x96 (or $x877 $x885) (or $x875 (<= (+ A_4 ?x333 ?x398 L_3 ?x391) 0.0)) (<= (+ ?x894 S_1 ?x893) 0.0) $x38638 (or (not (<= 0.0 (+ L_0 ?x437))) $x879) $x37558 (or $x873 (not $x15467)) (or (<= (+ ?x341 ?x894 S_3 L_1) (- 5.0)) $x879) (or $x879 $x1753) (<= (+ ?x337 L_2 ?x391 S_3) 0.0) (<= (+ (* (- 4.0) C) S_3 ?x893) 0.0) (<= (+ ?x869 (* (- 3.0) C) S_3 L_0) 0.0) (or $x852 (<= (+ C (* (- 1.0) S_4) S_2) 0.0)) (or $x879 (<= (+ A_2 ?x341 ?x424 L_1 ?x391) 0.0)) (or $x256 $x1099 $x1349 $x16577) (or $x879 $x16575) (or $x256 $x1099 $x2321 $x16577) (or $x256 $x1099 $x16403 $x16577) $x38302 (or $x256 $x858 $x1099 $x16577) $x38447 $x37586 $x38243 (or (not $x256) $x875) (or $x864 (<= (+ C (* (- 1.0) S_2) S_0) 0.0)) (<= (+ ?x869 ?x391 S_1 L_0) 0.0) (or $x858 (<= (+ C (* (- 1.0) S_3) S_1) 0.0)) (<= (+ ?x894 S_2 ?x382) 0.0) (<= (+ ?x869 ?x894 S_2 L_0) 0.0) (or $x879 (<= (+ ?x341 ?x391 S_2 L_1) (- 5.0))) (or $x852 $x1100 $x1737 $x15467 $x16597) (or $x852 $x1100 $x1349 $x1737 $x15467) (or $x879 (<= (+ ?x341 S_1 L_1) (- 5.0))) (<= (+ ?x894 S_4 (* (- 1.0) S_3)) 0.0) (<= (+ ?x337 L_2 ?x894 S_4) 0.0) (or $x1423 $x15467 $x16597 $x16866) (or $x1423 $x1725 $x15467 $x16866) $x24307 $x38556 $x21315 $x38407 (or $x879 (<= (+ ?x341 C S_0 L_1) (- 5.0))) $x37607 $x37957 (or $x858 $x3045 $x15467 $x16866) $x20660 (or $x903 $x2691 $x15467 $x16866) (or $x903 $x15467 $x16713 $x16866) (or $x879 (<= (+ A_4 ?x333 ?x341 L_3 S_0 L_1 ?x398) 0.0)) $x37772 $x21274 (<= (+ (* (- 3.0) C) S_4 (* (- 1.0) S_2)) 0.0) (or (not $x877) $x6711 $x15467 $x17477) (<= (+ (* (- 3.0) C) S_2 ?x893) 0.0) (<= (+ ?x333 L_3 ?x391 S_4) 0.0) (or $x879 (<= (+ A_3 ?x337 ?x341 L_2 S_0 L_1 ?x411) 0.0)) $x38287 (<= (+ (* (- 3.0) C) S_3 ?x382) 0.0) $x38737 (<= (+ ?x869 (* (- 4.0) C) S_4 L_0) 0.0) (or $x879 (<= (+ ?x341 (* (- 3.0) C) S_4 L_1) (- 5.0))) (<= (+ (* (- 4.0) C) S_4 ?x382) 0.0) (or $x852 $x1349 (<= (+ ?x1082 (* (- 1.0) S_4) S_1) 0.0)) (<= (+ (* (- 5.0) C) S_4 ?x893) 0.0) $x18021 (or $x17946 (<= (+ ?x337 C S_1 L_2) (- 5.0))) (or $x17946 (<= (+ ?x337 S_2 L_2) (- 5.0))) $x10379 (or (<= 0.0 ?x1463) $x17946) (or $x877 (not $x17946)) (or $x17946 (<= (+ ?x337 ?x894 S_4 L_2) (- 5.0))) (or $x17946 (<= (+ ?x337 ?x391 S_3 L_2) (- 5.0))) $x38077 (or (<= (+ A_4 ?x333 ?x337 L_3 S_1 L_2 ?x398) 0.0) $x17946) $x20222 (or (= ?x10874 0.0) $x15467 $x17477 (not $x18284)) $x38340 (or $x875 (<= (+ ?x333 S_3 L_3) (- 5.0))) (or $x875 (<= (+ ?x333 C S_2 L_3) (- 5.0))) (or $x875 (<= (+ ?x333 ?x391 S_4 L_3) (- 5.0))) (or $x875 (<= 0.0 (+ A_3 ?x337 ?x411 ?x391 L_2))) (or $x875 $x16403 (<= (+ ?x333 ?x1082 S_1 L_3) (- 5.0))) (<= (+ ?x341 L_1 ?x391 S_2) 0.0) $x18532 $x21120 (<= (+ ?x341 L_1 (* (- 3.0) C) S_4) 0.0) (or $x852 $x15467 $x17477) (or $x15467 $x16713 (<= (+ ?x329 ?x1082 S_2 L_4) (- 5.0))) (or $x15467 (<= (+ ?x329 S_4 L_4) (- 5.0))) (or $x15467 (<= (+ ?x329 C S_3 L_4) (- 5.0))) (or $x15467 $x16713 $x17477) (or $x10839 $x15467 $x17477) $x38393 $x37918 (or $x15467 $x16597 $x16713 (<= (+ ?x329 (* 3.0 C) S_1 L_4) (- 5.0))) (or $x10842 $x15467 $x17477) $x38771 $x682 $x34 (<= (+ ?x869 S_0 L_0) 0.0) (<= (+ ?x341 S_1 L_1) 0.0) (<= (+ ?x894 S_3 (* (- 1.0) S_2)) 0.0) (<= (+ ?x337 S_2 L_2) 0.0) (<= (+ ?x333 S_3 L_3) 0.0) (<= (+ ?x329 L_4 S_4) 0.0) (<= (+ ?x341 L_1 ?x894 S_3) 0.0)))))))))))))))))))))))))))))))))))))))))))))))))))))))))))))))))))))))))))))))))))))))))))))
(check-sat)
